p cnf 618 1647
a 1 2 3 4 5 6 7 8 13 14 15 16 17 18 19 20 21 22 23 24 25 26 27 28 29 30 31 32 33 34 35 36 37 38 39 40 41 42 43 44 45 46 47 48 49 50 51 52 53 54 55 56 57 58 59 60 61 62 63 64 65 66 0
e 9 10 11 12 67 68 69 70 71 72 73 74 75 76 77 78 79 80 81 82 83 84 85 86 87 88 89 90 91 92 93 94 95 96 97 98 99 100 101 102 103 104 105 106 107 108 109 110 111 112 113 114 115 116 117 118 119 120 121 122 123 124 125 126 127 128 129 130 131 132 133 134 135 136 137 138 139 140 141 142 143 144 145 146 147 148 149 150 151 152 153 154 155 156 157 158 159 160 161 162 163 164 165 166 167 168 169 170 171 172 173 174 175 176 177 178 179 180 181 182 183 184 185 186 187 188 189 190 191 192 193 194 195 196 197 198 199 200 201 202 203 204 205 206 207 208 209 210 211 212 213 214 215 216 217 218 219 220 221 222 223 224 225 226 227 228 229 230 231 232 233 234 235 236 237 238 239 240 241 242 243 244 245 246 247 248 249 250 251 252 253 254 255 256 257 258 259 260 261 262 263 264 265 266 267 268 269 270 271 272 273 274 275 276 277 278 279 280 281 282 283 284 285 286 287 288 289 290 291 292 293 294 295 296 297 298 299 300 301 302 303 304 305 306 307 308 309 310 311 312 313 314 315 316 317 318 319 320 321 322 323 324 325 326 327 328 329 330 331 332 333 334 335 336 337 338 339 340 341 342 343 344 345 346 347 348 349 350 351 352 353 354 355 356 357 358 359 360 361 362 363 364 365 366 367 368 369 370 371 372 373 374 375 376 377 378 379 380 381 382 383 384 385 386 387 388 389 390 391 392 393 394 395 396 397 398 399 400 401 402 403 404 405 406 407 408 409 410 411 412 413 414 415 416 417 418 419 420 421 422 423 424 425 426 427 428 429 430 431 432 433 434 435 436 437 438 439 440 441 442 443 444 445 446 447 448 449 450 451 452 453 454 455 456 457 458 459 460 461 462 463 464 465 466 467 468 469 470 471 472 473 474 475 476 477 478 479 480 481 482 483 484 485 486 487 488 489 490 491 492 493 494 495 496 497 498 499 500 501 502 503 504 505 506 507 508 509 510 511 512 513 514 515 516 517 518 519 520 521 522 523 524 525 526 527 528 529 530 531 532 533 534 535 536 537 538 539 540 541 542 543 544 545 546 547 548 549 550 551 552 553 554 555 556 557 558 559 560 561 562 563 564 565 566 567 568 569 570 571 572 573 574 575 576 577 578 579 580 581 582 583 584 585 586 587 588 589 590 591 592 593 594 595 596 597 598 599 600 601 602 603 604 605 606 607 608 609 610 611 612 613 614 615 616 617 618 0
-618 0
618 -374 0
618 -399 0
618 -448 0
618 -473 0
618 -482 0
618 -491 0
618 -512 0
618 -531 0
618 -548 0
618 -557 0
618 -566 0
618 -575 0
618 -584 0
618 -599 0
618 -608 0
618 -617 0
7 5 6 8 2 1 -373 -372 -616 617 0
616 -612 0
616 -615 0
-9 -10 -11 -12 -346 -345 -344 -343 -334 -614 -613 615 0
614 -390 0
614 -366 0
613 -465 0
613 -395 0
-611 -67 612 0
611 -609 0
611 -610 0
611 -182 0
611 -191 0
611 -192 0
611 -193 0
611 -194 0
-214 -378 610 0
-383 -453 609 0
7 5 4 6 2 1 -373 -372 -607 608 0
607 -603 0
607 -606 0
-9 -10 -11 -12 -431 -430 -429 -464 -463 -605 -604 606 0
605 -437 0
605 -347 0
604 -469 0
604 -390 0
-602 -67 603 0
602 -600 0
602 -601 0
602 -451 0
602 -452 0
602 -405 0
602 -406 0
602 -407 0
-195 -413 601 0
-378 -457 600 0
7 5 4 8 2 1 -373 -372 -598 599 0
598 -591 0
598 -597 0
-9 -10 -11 -12 -545 -528 -509 -596 597 0
596 -595 0
596 -252 0
596 -253 0
596 -254 0
596 -255 0
-594 -593 -592 595 0
594 -320 0
594 -321 0
594 -246 0
594 -247 0
594 -57 0
594 -53 0
594 -43 0
594 -42 0
594 -41 0
594 -40 0
594 -37 0
593 -317 0
593 -241 0
593 -242 0
593 -318 0
593 -56 0
593 -50 0
593 -34 0
593 -33 0
593 -32 0
593 -31 0
593 -28 0
592 -323 0
592 -236 0
592 -237 0
592 -324 0
592 -55 0
592 -47 0
592 -25 0
592 -24 0
592 -23 0
592 -22 0
592 -19 0
-590 -67 591 0
590 -589 0
590 -499 0
590 -519 0
590 -537 0
-103 -102 -101 -100 -588 589 0
588 -585 0
588 -586 0
588 -587 0
37 53 43 40 57 42 41 -95 -94 -169 -168 587 0
28 32 31 33 34 56 50 -166 -90 -89 -165 586 0
25 24 23 22 19 55 47 -172 -85 -84 -171 585 0
7 4 6 8 2 1 -373 -372 -583 584 0
583 -579 0
583 -582 0
-9 -10 -11 -12 -356 -355 -354 -389 -388 -581 -580 582 0
581 -394 0
581 -347 0
580 -362 0
580 -465 0
-578 -67 579 0
578 -576 0
578 -577 0
578 -376 0
578 -377 0
578 -202 0
578 -203 0
578 -204 0
-195 -382 577 0
-453 -210 576 0
7 5 6 8 3 1 -373 -372 -574 575 0
574 -570 0
574 -573 0
-9 -10 -11 -12 -337 -336 -335 -365 -363 -572 -571 573 0
572 -442 0
572 -347 0
571 -469 0
571 -395 0
-569 -67 570 0
569 -567 0
569 -568 0
569 -211 0
569 -213 0
569 -183 0
569 -184 0
569 -185 0
-195 -418 568 0
-383 -457 567 0
7 5 4 6 3 1 -373 -372 -565 566 0
565 -561 0
565 -564 0
-9 -10 -11 -12 -426 -425 -424 -468 -467 -563 -562 564 0
563 -437 0
563 -366 0
562 -442 0
562 -465 0
-560 -67 561 0
560 -558 0
560 -559 0
560 -455 0
560 -456 0
560 -400 0
560 -401 0
560 -402 0
-214 -413 559 0
-453 -418 558 0
7 5 4 8 3 1 -373 -372 -556 557 0
556 -552 0
556 -555 0
-9 -10 -11 -12 -305 -304 -299 -441 -439 -554 -553 555 0
554 -461 0
554 -366 0
553 -315 0
553 -469 0
-551 -67 552 0
551 -549 0
551 -550 0
551 -415 0
551 -417 0
551 -147 0
551 -152 0
551 -153 0
-214 -449 550 0
-457 -163 549 0
7 5 6 8 3 2 -373 -372 -547 548 0
547 -539 0
547 -546 0
-9 -10 -11 -12 -545 -527 -508 -544 546 0
545 -461 0
545 -347 0
544 -543 0
544 -252 0
544 -253 0
544 -254 0
544 -255 0
-542 -541 -540 543 0
542 -230 0
542 -233 0
542 -290 0
542 -291 0
542 -66 0
542 -63 0
542 -57 0
542 -53 0
542 -43 0
542 -42 0
542 -37 0
541 -287 0
541 -288 0
541 -225 0
541 -228 0
541 -65 0
541 -62 0
541 -56 0
541 -50 0
541 -34 0
541 -33 0
541 -28 0
540 -284 0
540 -220 0
540 -285 0
540 -223 0
540 -64 0
540 -61 0
540 -55 0
540 -47 0
540 -25 0
540 -24 0
540 -19 0
-538 -67 539 0
538 -536 0
538 -498 0
538 -518 0
538 -537 0
-195 -449 537 0
-103 -102 -101 -100 -535 536 0
535 -532 0
535 -533 0
535 -534 0
37 53 66 43 63 57 42 -139 -138 -81 -78 534 0
28 33 34 56 50 65 62 -76 -73 -136 -135 533 0
25 24 19 55 61 64 47 -71 -133 -68 -132 532 0
7 4 6 8 3 1 -373 -372 -530 531 0
530 -521 0
530 -529 0
-9 -10 -11 -12 -528 -527 -507 -526 529 0
528 -442 0
528 -390 0
527 -394 0
527 -366 0
526 -525 0
526 -252 0
526 -253 0
526 -254 0
526 -255 0
-524 -523 -522 525 0
524 -231 0
524 -232 0
524 -248 0
524 -249 0
524 -57 0
524 -53 0
524 -43 0
524 -42 0
524 -41 0
524 -40 0
524 -37 0
523 -226 0
523 -227 0
523 -243 0
523 -244 0
523 -56 0
523 -50 0
523 -34 0
523 -33 0
523 -32 0
523 -31 0
523 -28 0
522 -221 0
522 -222 0
522 -238 0
522 -239 0
522 -55 0
522 -47 0
522 -25 0
522 -24 0
522 -23 0
522 -22 0
522 -19 0
-520 -67 521 0
520 -517 0
520 -497 0
520 -518 0
520 -519 0
-378 -418 519 0
-214 -382 518 0
-103 -102 -101 -100 -516 517 0
516 -513 0
516 -514 0
516 -515 0
37 53 43 40 57 42 41 -97 -96 -80 -79 515 0
28 32 31 33 34 56 50 -92 -91 -75 -74 514 0
25 24 23 22 19 55 47 -87 -86 -70 -69 513 0
5 4 6 3 2 1 -373 -372 -511 512 0
511 -501 0
511 -510 0
-9 -10 -11 -12 -509 -508 -507 -506 510 0
509 -315 0
509 -465 0
508 -437 0
508 -395 0
507 -362 0
507 -469 0
506 -505 0
506 -252 0
506 -253 0
506 -254 0
506 -255 0
-504 -503 -502 505 0
504 -263 0
504 -264 0
504 -273 0
504 -274 0
504 -43 0
504 -42 0
504 -41 0
504 -40 0
504 -39 0
504 -38 0
504 -37 0
503 -260 0
503 -261 0
503 -270 0
503 -271 0
503 -34 0
503 -33 0
503 -32 0
503 -31 0
503 -30 0
503 -29 0
503 -28 0
502 -267 0
502 -257 0
502 -258 0
502 -268 0
502 -25 0
502 -24 0
502 -23 0
502 -22 0
502 -21 0
502 -20 0
502 -19 0
-500 -67 501 0
500 -496 0
500 -497 0
500 -498 0
500 -499 0
-453 -163 499 0
-383 -413 498 0
-457 -210 497 0
-103 -102 -101 -100 -495 496 0
495 -492 0
495 -493 0
495 -494 0
39 38 37 43 40 42 41 -122 -121 -112 -111 494 0
28 32 31 30 29 33 34 -119 -118 -109 -108 493 0
25 24 23 22 21 20 19 -116 -106 -105 -115 492 0
5 4 8 3 2 1 -373 -372 -490 491 0
490 -486 0
490 -489 0
-9 -10 -11 -12 -314 -313 -312 -311 -294 -488 -487 489 0
488 -461 0
488 -395 0
487 -362 0
487 -442 0
-485 -67 486 0
485 -483 0
485 -484 0
485 -142 0
485 -159 0
485 -160 0
485 -161 0
485 -162 0
-383 -449 484 0
-418 -210 483 0
7 4 6 8 3 2 -373 -372 -481 482 0
481 -477 0
481 -480 0
-9 -10 -11 -12 -351 -350 -349 -393 -392 -479 -478 480 0
479 -461 0
479 -390 0
478 -362 0
478 -437 0
-476 -67 477 0
476 -474 0
476 -475 0
476 -380 0
476 -381 0
476 -197 0
476 -198 0
476 -199 0
-378 -449 475 0
-413 -210 474 0
7 5 4 6 3 2 -373 -372 -472 473 0
472 -460 0
472 -471 0
-9 -10 -11 -12 -436 -435 -434 -433 -428 -470 -466 471 0
470 -394 0
470 -469 0
-426 -425 -424 -468 -467 469 0
468 -432 0
468 -251 0
468 -252 0
468 -253 0
468 -254 0
468 -255 0
467 -462 0
467 -298 0
467 -252 0
467 -253 0
467 -254 0
467 -255 0
466 -461 0
466 -465 0
-431 -430 -429 -464 -463 465 0
464 -427 0
464 -342 0
464 -252 0
464 -253 0
464 -254 0
464 -255 0
463 -462 0
463 -326 0
463 -252 0
463 -253 0
463 -254 0
463 -255 0
-436 -435 -434 462 0
-282 -445 -444 -277 -256 461 0
-459 -67 460 0
459 -454 0
459 -458 0
459 -404 0
459 -409 0
459 -410 0
459 -411 0
459 -412 0
-457 -382 458 0
457 -455 0
457 -456 0
457 -400 0
457 -401 0
457 -402 0
-103 -102 -101 -100 -99 -408 456 0
-103 -102 -101 -100 -146 -450 455 0
-453 -449 454 0
453 -451 0
453 -452 0
453 -405 0
453 -406 0
453 -407 0
-103 -102 -101 -100 -190 -403 452 0
-103 -102 -101 -100 -174 -450 451 0
450 -410 0
450 -411 0
450 -412 0
449 -104 0
449 -125 0
449 -420 0
449 -421 0
449 -130 0
7 5 4 8 3 2 -373 -372 -447 448 0
447 -423 0
447 -446 0
-9 -10 -11 -12 -282 -445 -444 -277 -256 -443 -438 446 0
445 -440 0
445 -266 0
445 -252 0
445 -253 0
445 -254 0
445 -255 0
444 -306 0
444 -235 0
444 -252 0
444 -253 0
444 -254 0
444 -255 0
443 -394 0
443 -442 0
-305 -304 -299 -441 -439 442 0
441 -440 0
441 -303 0
441 -252 0
441 -253 0
441 -254 0
441 -255 0
-314 -313 -312 440 0
439 -283 0
439 -298 0
439 -252 0
439 -253 0
439 -254 0
439 -255 0
438 -315 0
438 -437 0
-436 -435 -434 -433 -428 437 0
436 -266 0
436 -252 0
436 -253 0
436 -254 0
436 -255 0
435 -281 0
435 -333 0
435 -252 0
435 -253 0
435 -254 0
435 -255 0
434 -235 0
434 -303 0
434 -252 0
434 -253 0
434 -254 0
434 -255 0
433 -432 0
433 -281 0
433 -252 0
433 -253 0
433 -254 0
433 -255 0
-431 -430 -429 432 0
431 -333 0
431 -252 0
431 -253 0
431 -254 0
431 -255 0
430 -266 0
430 -326 0
430 -252 0
430 -253 0
430 -254 0
430 -255 0
429 -303 0
429 -342 0
429 -252 0
429 -253 0
429 -254 0
429 -255 0
428 -427 0
428 -235 0
428 -252 0
428 -253 0
428 -254 0
428 -255 0
-426 -425 -424 427 0
426 -303 0
426 -252 0
426 -253 0
426 -254 0
426 -255 0
425 -251 0
425 -333 0
425 -252 0
425 -253 0
425 -254 0
425 -255 0
424 -266 0
424 -298 0
424 -252 0
424 -253 0
424 -254 0
424 -255 0
-422 -67 423 0
422 -414 0
422 -419 0
422 -104 0
422 -125 0
422 -420 0
422 -421 0
422 -130 0
-103 -102 -101 -100 -114 -416 421 0
-103 -102 -101 -100 -83 -154 420 0
-418 -382 419 0
418 -415 0
418 -417 0
418 -147 0
418 -152 0
418 -153 0
-103 -102 -101 -100 -151 -416 417 0
416 -160 0
416 -161 0
416 -162 0
-103 -102 -101 -100 -146 -131 415 0
-413 -163 414 0
413 -404 0
413 -409 0
413 -410 0
413 -411 0
413 -412 0
-103 -102 -101 -100 -114 412 0
-103 -102 -101 -100 -181 -129 411 0
-103 -102 -101 -100 -151 -83 410 0
-103 -102 -101 -100 -129 -408 409 0
408 -405 0
408 -406 0
408 -407 0
-103 -102 -101 -100 -181 407 0
-103 -102 -101 -100 -174 -114 406 0
-103 -102 -101 -100 -190 -151 405 0
-103 -102 -101 -100 -83 -403 404 0
403 -400 0
403 -401 0
403 -402 0
-103 -102 -101 -100 -151 402 0
-103 -102 -101 -100 -181 -99 401 0
-103 -102 -101 -100 -146 -114 400 0
4 6 8 3 2 1 -373 -372 -398 399 0
398 -386 0
398 -397 0
-9 -10 -11 -12 -361 -360 -359 -358 -353 -396 -391 397 0
396 -394 0
396 -395 0
-328 -327 -316 -369 -368 395 0
-351 -350 -349 -393 -392 394 0
393 -281 0
393 -357 0
393 -252 0
393 -253 0
393 -254 0
393 -255 0
392 -387 0
392 -266 0
392 -252 0
392 -253 0
392 -254 0
392 -255 0
391 -315 0
391 -390 0
-356 -355 -354 -389 -388 390 0
389 -352 0
389 -326 0
389 -252 0
389 -253 0
389 -254 0
389 -255 0
388 -387 0
388 -333 0
388 -252 0
388 -253 0
388 -254 0
388 -255 0
-361 -360 -359 387 0
-385 -67 386 0
385 -379 0
385 -384 0
385 -201 0
385 -206 0
385 -207 0
385 -208 0
385 -209 0
-383 -382 384 0
383 -216 0
383 -217 0
383 -164 0
383 -175 0
383 -176 0
382 -380 0
382 -381 0
382 -197 0
382 -198 0
382 -199 0
-103 -102 -101 -100 -205 -129 381 0
-103 -102 -101 -100 -114 -375 380 0
-378 -163 379 0
378 -376 0
378 -377 0
378 -202 0
378 -203 0
378 -204 0
-103 -102 -101 -100 -174 -200 377 0
-103 -102 -101 -100 -181 -375 376 0
375 -207 0
375 -208 0
375 -209 0
5 6 8 3 2 1 -373 -372 -371 374 0
373 -7 0
373 -3 0
373 -2 0
373 -1 0
372 -8 0
372 -6 0
372 -5 0
372 -4 0
371 -219 0
371 -370 0
-9 -10 -11 -12 -328 -327 -316 -369 -368 -367 -348 370 0
369 -276 0
369 -364 0
369 -252 0
369 -253 0
369 -254 0
369 -255 0
368 -310 0
368 -338 0
368 -252 0
368 -253 0
368 -254 0
368 -255 0
367 -362 0
367 -366 0
-337 -336 -335 -365 -363 366 0
365 -251 0
365 -364 0
365 -252 0
365 -253 0
365 -254 0
365 -255 0
-346 -345 -344 364 0
363 -329 0
363 -303 0
363 -252 0
363 -253 0
363 -254 0
363 -255 0
-361 -360 -359 -358 -353 362 0
361 -310 0
361 -252 0
361 -253 0
361 -254 0
361 -255 0
360 -235 0
360 -293 0
360 -252 0
360 -253 0
360 -254 0
360 -255 0
359 -276 0
359 -342 0
359 -252 0
359 -253 0
359 -254 0
359 -255 0
358 -357 0
358 -276 0
358 -252 0
358 -253 0
358 -254 0
358 -255 0
-356 -355 -354 357 0
356 -342 0
356 -252 0
356 -253 0
356 -254 0
356 -255 0
355 -310 0
355 -333 0
355 -252 0
355 -253 0
355 -254 0
355 -255 0
354 -235 0
354 -326 0
354 -252 0
354 -253 0
354 -254 0
354 -255 0
353 -352 0
353 -293 0
353 -252 0
353 -253 0
353 -254 0
353 -255 0
-351 -350 -349 352 0
351 -235 0
351 -252 0
351 -253 0
351 -254 0
351 -255 0
350 -266 0
350 -310 0
350 -252 0
350 -253 0
350 -254 0
350 -255 0
349 -281 0
349 -342 0
349 -252 0
349 -253 0
349 -254 0
349 -255 0
348 -315 0
348 -347 0
-346 -345 -344 -343 -334 347 0
346 -326 0
346 -252 0
346 -253 0
346 -254 0
346 -255 0
345 -293 0
345 -333 0
345 -252 0
345 -253 0
345 -254 0
345 -255 0
344 -298 0
344 -342 0
344 -252 0
344 -253 0
344 -254 0
344 -255 0
343 -338 0
343 -342 0
343 -252 0
343 -253 0
343 -254 0
343 -255 0
-341 -340 -339 342 0
341 -320 0
341 -321 0
341 -231 0
341 -232 0
341 -57 0
341 -54 0
341 -53 0
341 -52 0
341 -43 0
341 -41 0
341 -40 0
340 -317 0
340 -226 0
340 -227 0
340 -318 0
340 -56 0
340 -51 0
340 -50 0
340 -49 0
340 -34 0
340 -32 0
340 -31 0
339 -323 0
339 -221 0
339 -222 0
339 -324 0
339 -55 0
339 -48 0
339 -47 0
339 -46 0
339 -25 0
339 -23 0
339 -22 0
-337 -336 -335 338 0
337 -298 0
337 -252 0
337 -253 0
337 -254 0
337 -255 0
336 -251 0
336 -326 0
336 -252 0
336 -253 0
336 -254 0
336 -255 0
335 -303 0
335 -293 0
335 -252 0
335 -253 0
335 -254 0
335 -255 0
334 -329 0
334 -333 0
334 -252 0
334 -253 0
334 -254 0
334 -255 0
-332 -331 -330 333 0
332 -320 0
332 -321 0
332 -263 0
332 -264 0
332 -60 0
332 -57 0
332 -52 0
332 -42 0
332 -41 0
332 -40 0
332 -39 0
331 -317 0
331 -260 0
331 -261 0
331 -318 0
331 -59 0
331 -56 0
331 -49 0
331 -33 0
331 -32 0
331 -31 0
331 -30 0
330 -323 0
330 -257 0
330 -258 0
330 -324 0
330 -58 0
330 -55 0
330 -46 0
330 -24 0
330 -23 0
330 -22 0
330 -21 0
-328 -327 -316 329 0
328 -293 0
328 -252 0
328 -253 0
328 -254 0
328 -255 0
327 -276 0
327 -326 0
327 -252 0
327 -253 0
327 -254 0
327 -255 0
-325 -322 -319 326 0
325 -284 0
325 -323 0
325 -285 0
325 -324 0
325 -61 0
325 -55 0
325 -47 0
325 -46 0
325 -25 0
325 -24 0
325 -22 0
-10 -17 324 0
-13 10 323 0
322 -320 0
322 -321 0
322 -290 0
322 -291 0
322 -63 0
322 -57 0
322 -53 0
322 -52 0
322 -43 0
322 -42 0
322 -40 0
-10 -18 321 0
-15 10 320 0
319 -287 0
319 -288 0
319 -317 0
319 -318 0
319 -62 0
319 -56 0
319 -50 0
319 -49 0
319 -34 0
319 -33 0
319 -31 0
-10 -16 318 0
-14 10 317 0
316 -310 0
316 -298 0
316 -252 0
316 -253 0
316 -254 0
316 -255 0
-314 -313 -312 -311 -294 315 0
314 -276 0
314 -252 0
314 -253 0
314 -254 0
314 -255 0
313 -310 0
313 -251 0
313 -252 0
313 -253 0
313 -254 0
313 -255 0
312 -281 0
312 -293 0
312 -252 0
312 -253 0
312 -254 0
312 -255 0
311 -306 0
311 -310 0
311 -252 0
311 -253 0
311 -254 0
311 -255 0
-309 -308 -307 310 0
309 -231 0
309 -232 0
309 -273 0
309 -274 0
309 -53 0
309 -52 0
309 -43 0
309 -42 0
309 -41 0
309 -40 0
309 -38 0
308 -226 0
308 -227 0
308 -270 0
308 -271 0
308 -50 0
308 -49 0
308 -34 0
308 -33 0
308 -32 0
308 -31 0
308 -29 0
307 -267 0
307 -221 0
307 -222 0
307 -268 0
307 -47 0
307 -46 0
307 -25 0
307 -24 0
307 -23 0
307 -22 0
307 -20 0
-305 -304 -299 306 0
305 -251 0
305 -252 0
305 -253 0
305 -254 0
305 -255 0
304 -276 0
304 -303 0
304 -252 0
304 -253 0
304 -254 0
304 -255 0
-302 -301 -300 303 0
302 -263 0
302 -264 0
302 -248 0
302 -249 0
302 -57 0
302 -52 0
302 -43 0
302 -42 0
302 -41 0
302 -40 0
302 -39 0
301 -260 0
301 -261 0
301 -243 0
301 -244 0
301 -56 0
301 -49 0
301 -34 0
301 -33 0
301 -32 0
301 -31 0
301 -30 0
300 -257 0
300 -258 0
300 -238 0
300 -239 0
300 -55 0
300 -46 0
300 -25 0
300 -24 0
300 -23 0
300 -22 0
300 -21 0
299 -281 0
299 -298 0
299 -252 0
299 -253 0
299 -254 0
299 -255 0
-297 -296 -295 298 0
297 -248 0
297 -249 0
297 -290 0
297 -291 0
297 -63 0
297 -57 0
297 -54 0
297 -53 0
297 -52 0
297 -43 0
297 -40 0
296 -287 0
296 -288 0
296 -243 0
296 -244 0
296 -62 0
296 -56 0
296 -51 0
296 -50 0
296 -49 0
296 -34 0
296 -31 0
295 -284 0
295 -285 0
295 -238 0
295 -239 0
295 -61 0
295 -55 0
295 -48 0
295 -47 0
295 -46 0
295 -25 0
295 -22 0
294 -283 0
294 -293 0
294 -252 0
294 -253 0
294 -254 0
294 -255 0
-292 -289 -286 293 0
292 -290 0
292 -291 0
292 -273 0
292 -274 0
292 -63 0
292 -53 0
292 -52 0
292 -43 0
292 -42 0
292 -40 0
292 -38 0
-12 -45 291 0
12 -44 290 0
289 -287 0
289 -288 0
289 -270 0
289 -271 0
289 -62 0
289 -50 0
289 -49 0
289 -34 0
289 -33 0
289 -31 0
289 -29 0
-12 -36 288 0
-35 12 287 0
286 -284 0
286 -267 0
286 -285 0
286 -268 0
286 -61 0
286 -47 0
286 -46 0
286 -25 0
286 -24 0
286 -22 0
286 -20 0
-12 -27 285 0
-26 12 284 0
-282 -277 -256 283 0
282 -281 0
282 -252 0
282 -253 0
282 -254 0
282 -255 0
-280 -279 -278 281 0
280 -220 0
280 -236 0
280 -237 0
280 -223 0
280 -64 0
280 -55 0
280 -47 0
280 -46 0
280 -25 0
280 -24 0
280 -23 0
279 -230 0
279 -246 0
279 -247 0
279 -233 0
279 -66 0
279 -57 0
279 -53 0
279 -52 0
279 -43 0
279 -42 0
279 -41 0
278 -225 0
278 -241 0
278 -242 0
278 -228 0
278 -65 0
278 -56 0
278 -50 0
278 -49 0
278 -34 0
278 -33 0
278 -32 0
277 -266 0
277 -276 0
277 -252 0
277 -253 0
277 -254 0
277 -255 0
-275 -272 -269 276 0
275 -246 0
275 -247 0
275 -273 0
275 -274 0
275 -54 0
275 -53 0
275 -52 0
275 -43 0
275 -41 0
275 -40 0
275 -38 0
-9 -18 274 0
-15 9 273 0
272 -241 0
272 -242 0
272 -270 0
272 -271 0
272 -51 0
272 -50 0
272 -49 0
272 -34 0
272 -32 0
272 -31 0
272 -29 0
-14 9 271 0
-9 -16 270 0
269 -236 0
269 -237 0
269 -267 0
269 -268 0
269 -48 0
269 -47 0
269 -46 0
269 -25 0
269 -23 0
269 -22 0
269 -20 0
-9 -17 268 0
-13 9 267 0
-265 -262 -259 266 0
265 -230 0
265 -263 0
265 -264 0
265 -233 0
265 -66 0
265 -57 0
265 -52 0
265 -43 0
265 -42 0
265 -41 0
265 -39 0
-9 -45 264 0
9 -44 263 0
262 -225 0
262 -260 0
262 -261 0
262 -228 0
262 -65 0
262 -56 0
262 -49 0
262 -34 0
262 -33 0
262 -32 0
262 -30 0
-9 -36 261 0
-35 9 260 0
259 -220 0
259 -257 0
259 -258 0
259 -223 0
259 -64 0
259 -55 0
259 -46 0
259 -25 0
259 -24 0
259 -23 0
259 -21 0
-9 -27 258 0
-26 9 257 0
256 -235 0
256 -251 0
256 -252 0
256 -253 0
256 -254 0
256 -255 0
-14 13 255 0
-17 16 254 0
-15 14 253 0
-16 18 252 0
-250 -245 -240 251 0
250 -246 0
250 -247 0
250 -248 0
250 -249 0
250 -60 0
250 -57 0
250 -53 0
250 -52 0
250 -42 0
250 -41 0
250 -40 0
-11 -18 249 0
-15 11 248 0
-10 -45 247 0
10 -44 246 0
245 -241 0
245 -242 0
245 -243 0
245 -244 0
245 -59 0
245 -56 0
245 -50 0
245 -49 0
245 -33 0
245 -32 0
245 -31 0
-14 11 244 0
-11 -16 243 0
-10 -36 242 0
-35 10 241 0
240 -236 0
240 -237 0
240 -238 0
240 -239 0
240 -58 0
240 -55 0
240 -47 0
240 -46 0
240 -24 0
240 -23 0
240 -22 0
-11 -17 239 0
-13 11 238 0
-10 -27 237 0
-26 10 236 0
-234 -229 -224 235 0
234 -230 0
234 -231 0
234 -232 0
234 -233 0
234 -66 0
234 -60 0
234 -57 0
234 -53 0
234 -52 0
234 -42 0
234 -41 0
-15 12 233 0
-11 -45 232 0
11 -44 231 0
-12 -18 230 0
229 -225 0
229 -226 0
229 -227 0
229 -228 0
229 -65 0
229 -59 0
229 -56 0
229 -50 0
229 -49 0
229 -33 0
229 -32 0
-14 12 228 0
-11 -36 227 0
-35 11 226 0
-12 -16 225 0
224 -220 0
224 -221 0
224 -222 0
224 -223 0
224 -64 0
224 -58 0
224 -55 0
224 -47 0
224 -46 0
224 -24 0
224 -23 0
-13 12 223 0
-11 -27 222 0
-26 11 221 0
-12 -17 220 0
-218 -67 219 0
218 -196 0
218 -215 0
218 -216 0
218 -217 0
218 -164 0
218 -175 0
218 -176 0
-103 -102 -101 -100 -212 -124 217 0
-103 -102 -101 -100 -186 -158 216 0
-214 -210 215 0
214 -211 0
214 -213 0
214 -183 0
214 -184 0
214 -185 0
-103 -102 -101 -100 -212 -99 213 0
212 -192 0
212 -193 0
212 -194 0
-103 -102 -101 -100 -151 -177 211 0
210 -201 0
210 -206 0
210 -207 0
210 -208 0
210 -209 0
-103 -102 -101 -100 -158 209 0
-103 -102 -101 -100 -141 -83 208 0
-103 -102 -101 -100 -190 -124 207 0
-103 -102 -101 -100 -124 -205 206 0
205 -202 0
205 -203 0
205 -204 0
-103 -102 -101 -100 -190 204 0
-103 -102 -101 -100 -181 -158 203 0
-103 -102 -101 -100 -174 -83 202 0
-103 -102 -101 -100 -141 -200 201 0
200 -197 0
200 -198 0
200 -199 0
-103 -102 -101 -100 -83 199 0
-103 -102 -101 -100 -158 -114 198 0
-103 -102 -101 -100 -190 -129 197 0
-195 -163 196 0
195 -182 0
195 -191 0
195 -192 0
195 -193 0
195 -194 0
-103 -102 -101 -100 -174 194 0
-103 -102 -101 -100 -181 -141 193 0
-103 -102 -101 -100 -190 -146 192 0
-103 -102 -101 -100 -190 -186 191 0
190 -187 0
190 -188 0
190 -189 0
54 53 52 43 40 57 41 -80 -79 -169 -168 189 0
32 31 34 56 50 51 49 -166 -75 -74 -165 188 0
25 23 22 55 48 46 47 -172 -70 -69 -171 187 0
186 -183 0
186 -184 0
186 -185 0
-103 -102 -101 -100 -146 185 0
-103 -102 -101 -100 -174 -99 184 0
-103 -102 -101 -100 -141 -151 183 0
-103 -102 -101 -100 -181 -177 182 0
181 -178 0
181 -179 0
181 -180 0
39 52 40 60 57 42 41 -112 -111 -169 -168 180 0
32 31 30 33 56 49 59 -166 -109 -108 -165 179 0
24 23 22 21 55 46 58 -172 -106 -105 -171 178 0
177 -164 0
177 -175 0
177 -176 0
-103 -102 -101 -100 -141 176 0
-103 -102 -101 -100 -174 -124 175 0
174 -167 0
174 -170 0
174 -173 0
25 24 22 55 61 46 47 -172 -133 -171 -132 173 0
172 10 0
172 17 0
171 13 0
171 -10 0
53 52 43 40 63 57 42 -139 -138 -169 -168 170 0
169 10 0
169 18 0
168 15 0
168 -10 0
31 33 34 56 50 49 62 -166 -165 -136 -135 167 0
166 10 0
166 16 0
165 14 0
165 -10 0
-103 -102 -101 -100 -146 -158 164 0
163 -142 0
163 -159 0
163 -160 0
163 -161 0
163 -162 0
-103 -102 -101 -100 -124 162 0
-103 -102 -101 -100 -99 -158 161 0
-103 -102 -101 -100 -141 -129 160 0
-103 -102 -101 -100 -158 -154 159 0
158 -155 0
158 -156 0
158 -157 0
38 53 52 43 40 42 41 -122 -121 -80 -79 157 0
32 31 29 33 34 50 49 -119 -118 -75 -74 156 0
25 24 23 22 20 46 47 -116 -70 -69 -115 155 0
154 -147 0
154 -152 0
154 -153 0
-103 -102 -101 -100 -99 153 0
-103 -102 -101 -100 -151 -124 152 0
151 -148 0
151 -149 0
151 -150 0
39 52 43 40 57 42 41 -97 -96 -112 -111 150 0
32 31 30 33 34 56 49 -92 -91 -109 -108 149 0
25 24 23 22 21 55 46 -87 -86 -106 -105 148 0
-103 -102 -101 -100 -146 -129 147 0
146 -143 0
146 -144 0
146 -145 0
54 53 52 43 40 63 57 -139 -138 -97 -96 145 0
31 34 56 50 51 49 62 -92 -91 -136 -135 144 0
25 22 55 61 48 46 47 -87 -86 -133 -132 143 0
-103 -102 -101 -100 -141 -131 142 0
141 -134 0
141 -137 0
141 -140 0
38 53 52 43 40 63 42 -122 -121 -139 -138 140 0
139 45 0
139 12 0
138 44 0
138 -12 0
31 29 33 34 50 49 62 -119 -118 -136 -135 137 0
136 36 0
136 12 0
135 35 0
135 -12 0
25 24 22 20 61 46 47 -116 -133 -115 -132 134 0
133 27 0
133 12 0
132 26 0
132 -12 0
131 -104 0
131 -125 0
131 -130 0
-103 -102 -101 -100 -129 130 0
129 -126 0
129 -127 0
129 -128 0
25 24 23 55 46 64 47 -71 -85 -84 -68 128 0
53 52 66 43 57 42 41 -81 -95 -94 -78 127 0
32 33 34 56 50 49 65 -76 -90 -89 -73 126 0
-103 -102 -101 -100 -124 -114 125 0
124 -117 0
124 -120 0
124 -123 0
38 54 53 52 43 40 41 -122 -121 -95 -94 123 0
122 15 0
122 -9 0
121 18 0
121 9 0
32 31 29 34 50 51 49 -119 -118 -90 -89 120 0
119 14 0
119 -9 0
118 16 0
118 9 0
25 23 22 20 48 46 47 -116 -115 -85 -84 117 0
116 17 0
116 9 0
115 13 0
115 -9 0
114 -107 0
114 -110 0
114 -113 0
39 52 66 43 57 42 41 -81 -112 -111 -78 113 0
112 45 0
112 9 0
111 44 0
111 -9 0
32 30 33 34 56 49 65 -76 -109 -108 -73 110 0
109 36 0
109 9 0
108 35 0
108 -9 0
25 24 23 21 55 46 64 -71 -106 -105 -68 107 0
106 27 0
106 9 0
105 26 0
105 -9 0
-103 -102 -101 -100 -99 -83 104 0
103 14 0
103 -13 0
102 17 0
102 -16 0
101 15 0
101 -14 0
100 16 0
100 -18 0
99 -88 0
99 -93 0
99 -98 0
53 52 40 60 57 42 41 -97 -96 -95 -94 98 0
97 11 0
97 18 0
96 15 0
96 -11 0
95 45 0
95 10 0
94 44 0
94 -10 0
32 31 33 56 50 49 59 -92 -91 -90 -89 93 0
92 14 0
92 -11 0
91 11 0
91 16 0
90 36 0
90 10 0
89 35 0
89 -10 0
24 23 22 55 46 58 47 -87 -86 -85 -84 88 0
87 11 0
87 17 0
86 13 0
86 -11 0
85 27 0
85 10 0
84 26 0
84 -10 0
83 -72 0
83 -77 0
83 -82 0
53 52 66 60 57 42 41 -81 -80 -79 -78 82 0
81 15 0
81 -12 0
80 45 0
80 11 0
79 44 0
79 -11 0
78 12 0
78 18 0
32 33 56 50 49 65 59 -76 -75 -74 -73 77 0
76 14 0
76 -12 0
75 36 0
75 11 0
74 35 0
74 -11 0
73 12 0
73 16 0
24 23 55 46 64 58 47 -71 -70 -69 -68 72 0
71 13 0
71 -12 0
70 27 0
70 11 0
69 26 0
69 -11 0
68 12 0
68 17 0
67 10 0
67 11 0
67 12 0
67 9 0
